#######################################################################
#                                                                     #
# This file is part of a collection developed first for a course in   #
# financial optimization taught out of the text of Cornuejols and     #
# Tutuncu and then adapted for a tutorial on modeling and the COIN-OR #
# Optimization Suite. Materials for the original course on financial  #
# optimization are hosted here:                                       #
#                                                                     #
# http://coral.ie.lehigh.edu/~ted/teaching/ie447                      #
#                                                                     #
# Materials for the tutorial are hosted here:                         #
#                                                                     #
# http://coral.ie.lehigh.edu/~ted/teaching/coin-or                    #
#                                                                     #
#                                                                     #
# This collection of models is licensed under The Creative Commons    # 
# CC BY-SA 3.0 License, a copy of which is available here:            #
#                                                                     #
# http://creativecommons.org/licenses/by-sa/3.0/                      #
#                                                                     #
# Copyright 2014, Ted Ralphs                                          #
# All Rights Reserved                                                 #
# ted@lehigh.edu                                                      #
#                                                                     #
#######################################################################

\This file was automatically generated by Zimpl
\Problem name: dedication.zpl
Minimize
 total_cost:  +102 buy$A +99 buy$B +101 buy$C +98 buy$D +98 buy$E +104 buy$F
  +100 buy$G +101 buy$H +102 buy$I +94 buy$J + cash#0
Subject to
 cash_balance_1:
  +7 buy$J +9 buy$I +8 buy$H +6 buy$G +9 buy$F +4 buy$E
  +3.5 buy$D +5 buy$C +3.5 buy$B +105 buy$A - cash#1 + cash#0
  = 12000
 cash_balance_2:
  +7 buy$J +9 buy$I +8 buy$H +6 buy$G +9 buy$F +4 buy$E
  +3.5 buy$D +105 buy$C +103.5 buy$B - cash#2 + cash#1 = 18000
 cash_balance_3:
  +7 buy$J +9 buy$I +8 buy$H +6 buy$G +9 buy$F +4 buy$E
  +103.5 buy$D - cash#3 + cash#2 = 20000
 cash_balance_4:
  +7 buy$J +9 buy$I +8 buy$H +6 buy$G +9 buy$F +104 buy$E
  - cash#4 + cash#3 = 20000
 cash_balance_5:
  +7 buy$J +9 buy$I +8 buy$H +106 buy$G +109 buy$F - cash#5
  + cash#4 = 16000
 cash_balance_6:
  +7 buy$J +9 buy$I +108 buy$H - cash#6 + cash#5 = 15000
 cash_balance_7:
  +7 buy$J +109 buy$I - cash#7 + cash#6 = 12000
 cash_balance_8:
  +107 buy$J - cash#8 + cash#7 = 10000
Bounds
 0 <= buy$A <= +Inf
 0 <= buy$B <= +Inf
 0 <= buy$C <= +Inf
 0 <= buy$D <= +Inf
 0 <= buy$E <= +Inf
 0 <= buy$F <= +Inf
 0 <= buy$G <= +Inf
 0 <= buy$H <= +Inf
 0 <= buy$I <= +Inf
 0 <= buy$J <= +Inf
 0 <= cash#1 <= +Inf
 0 <= cash#2 <= +Inf
 0 <= cash#3 <= +Inf
 0 <= cash#4 <= +Inf
 0 <= cash#5 <= +Inf
 0 <= cash#6 <= +Inf
 0 <= cash#7 <= +Inf
 0 <= cash#8 <= +Inf
 0 <= cash#0 <= +Inf
End
